p cnf 71 229
-1 -2 -3 0
1 2 -3 0
-1 2 3 0
1 -2 3 0
4 -5 -6 0
-4 5 -6 0
4 5 6 0
-4 -5 6 0
9 7 0
9 -8 0
-7 8 -9 0
6 9 -10 0
-6 -9 -10 0
6 -9 10 0
-6 9 10 0
3 11 -12 0
-3 -11 -12 0
3 -11 12 0
-3 11 12 0
13 8 0
13 5 0
-8 -5 -13 0
14 12 0
14 -13 0
-12 13 -14 0
15 10 0
15 -14 0
-10 14 -15 0
-16 -3 0
-16 15 0
3 -15 16 0
-18 7 0
-18 17 0
-7 -17 18 0
20 18 0
20 19 0
-18 -19 -20 0
16 20 -21 0
-16 -20 -21 0
16 -20 21 0
-16 20 21 0
-22 -15 0
-22 7 0
15 -7 22 0
23 7 0
23 2 0
-7 -2 -23 0
-24 23 0
-24 -13 0
-23 13 24 0
24 11 -25 0
-24 -11 -25 0
24 -11 25 0
-24 11 25 0
-26 19 0
-26 3 0
-19 -3 26 0
27 -4 0
27 -11 0
4 11 -27 0
-19 27 -28 0
19 -27 -28 0
-19 -27 28 0
19 27 28 0
29 26 0
29 28 0
-26 -28 -29 0
25 29 -30 0
-25 -29 -30 0
25 -29 30 0
-25 29 30 0
-31 -7 0
-31 30 0
7 -30 31 0
-22 31 -32 0
22 -31 -32 0
-22 -31 32 0
22 31 32 0
33 -21 0
33 32 0
21 -32 -33 0
-35 34 0
-35 -28 0
-34 28 35 0
-26 -35 -36 0
26 35 -36 0
-26 35 36 0
26 -35 36 0
37 -36 0
37 -4 0
36 4 -37 0
39 37 0
39 38 0
-37 -38 -39 0
-33 39 -40 0
33 -39 -40 0
-33 -39 40 0
33 39 40 0
-42 -13 0
-42 -41 0
13 41 42 0
43 -23 0
43 17 0
23 -17 -43 0
45 -43 0
45 -44 0
43 44 -45 0
-46 42 0
-46 45 0
-42 -45 46 0
47 -2 0
47 -18 0
2 18 -47 0
-48 -46 0
-48 47 0
46 -47 48 0
-49 -40 0
-49 -48 0
40 48 49 0
-19 -4 -50 0
19 4 -50 0
-19 4 50 0
19 -4 50 0
51 -15 0
51 -14 0
15 14 -51 0
7 -35 -52 0
-7 35 -52 0
7 35 52 0
-7 -35 52 0
53 -44 0
53 44 0
-54 -52 0
-54 -53 0
52 53 54 0
51 -54 -55 0
-51 54 -55 0
51 54 55 0
-51 -54 55 0
-56 50 0
-56 -55 0
-50 55 56 0
57 53 0
57 -10 0
-53 10 -57 0
30 -23 -58 0
-30 23 -58 0
30 23 58 0
-30 -23 58 0
59 57 0
59 58 0
-57 -58 -59 0
-60 -15 0
-60 52 0
15 -52 60 0
-61 60 0
-61 34 0
-60 -34 61 0
62 -28 0
62 5 0
28 -5 -62 0
61 62 -63 0
-61 -62 -63 0
61 -62 63 0
-61 62 63 0
64 53 0
64 63 0
-53 -63 -64 0
-59 -64 -65 0
59 64 -65 0
-59 64 65 0
59 -64 65 0
67 1 0
67 37 0
-1 -37 -67 0
-68 66 0
-68 67 0
-66 -67 68 0
65 -68 -69 0
-65 68 -69 0
65 68 69 0
-65 -68 69 0
56 -69 -70 0
-56 69 -70 0
56 69 70 0
-56 -69 70 0
49 70 -71 0
-49 -70 -71 0
49 -70 71 0
-49 70 71 0
-20 7 0
59 -38 -20 0
7 -25 50 0
48 41 57 6 0
-29 -69 -9 43 0
63 20 -31 30 17 0
55 11 -40 52 65 0
-6 -10 0
14 -46 -44 0
-23 33 34 -62 0
26 -68 40 -32 37 58 0
24 41 -49 70 25 66 0
-38 -43 44 0
-61 -63 -45 0
47 6 -37 0
70 -71 64 9 7 -18 0
-11 -18 3 0
-10 26 38 13 66 0
12 -60 -71 -35 0
-58 20 -57 67 48 0
-24 30 4 50 -29 0
-58 -25 5 -32 0
35 -47 -49 -40 9 0
-43 -32 -45 -16 0
41 40 0
49 -17 -67 0
63 -68 -39 -13 -41 0
-22 34 -27 -56 0
-56 5 -51 0
-8 6 21 44 52 0
-47 -71 13 -35 0
-48 36 21 16 0
-8 12 -20 22 -17 0
-67 16 42 68 0
2 7 -22 9 33 0
4 -6 -24 0
-41 12 19 52 0
4 -7 69 -28 0
71 0
